solution status: optimal solution found
objective value:                                   35
x48                                                 1 	(obj:1)
x50                                                 1 	(obj:1)
x51                                                 1 	(obj:1)
x52                                                 1 	(obj:1)
x53                                                 1 	(obj:1)
x54                                                 1 	(obj:1)
x56                                                 1 	(obj:1)
x63                                                 1 	(obj:1)
x64                                                 1 	(obj:1)
x65                                                 1 	(obj:1)
x67                                                 1 	(obj:1)
x68                                                 1 	(obj:1)
x71                                                 1 	(obj:1)
x72                                                 1 	(obj:1)
x74                                                 1 	(obj:1)
x75                                                 1 	(obj:1)
x79                                                 1 	(obj:1)
x80                                                 1 	(obj:1)
x82                                                 1 	(obj:1)
x83                                                 1 	(obj:1)
x84                                                 1 	(obj:1)
x85                                                 1 	(obj:1)
x87                                                 1 	(obj:1)
x97                                                 1 	(obj:1)
x98                                                 1 	(obj:1)
x100                                                1 	(obj:1)
x101                                                1 	(obj:1)
x102                                                1 	(obj:1)
x104                                                1 	(obj:1)
x114                                                1 	(obj:1)
x116                                                1 	(obj:1)
x119                                                1 	(obj:1)
x122                                                1 	(obj:1)
x123                                                1 	(obj:1)
x124                                                1 	(obj:1)
thing.thing.chamber[1].thingy.v12_y                   18 	(obj:0)
thing.thing.chamber[1].thingy.v12_z                   15 	(obj:0)
thing.thing.chamber[2].thingy.v10_y                   19 	(obj:0)
thing.thing.chamber[2].thingy.v10_z                   21 	(obj:0)
thing.pump2_hole_y                                 22 	(obj:0)
thing.pump2_hole_z                                 20 	(obj:0)
thing.thing.chamber[1].thingy.v13_y                   20 	(obj:0)
thing.thing.chamber[1].thingy.v13_z                   17 	(obj:0)
thing.thing.chamber[0].thingy.v13_y                   21 	(obj:0)
thing.thing.chamber[0].thingy.v13_z                   18 	(obj:0)
thing.thing.chamber[2].thingy.p0_y                   21 	(obj:0)
thing.thing.chamber[2].thingy.p0_z                   23 	(obj:0)
thing.thing.chamber[2].thingy.r4c_y                   17 	(obj:0)
thing.thing.chamber[2].thingy.r4c_z                   20 	(obj:0)
thing.thing.chamber[0].thingy.p1_y                   18 	(obj:0)
thing.thing.chamber[0].thingy.p1_z                   20 	(obj:0)
thing.bead_flush_hole_y                            17 	(obj:0)
thing.bead_flush_hole_z                            23 	(obj:0)
thing.thing.chamber[1].thingy.r1c_y                   21 	(obj:0)
thing.thing.chamber[1].thingy.r1c_z                   20 	(obj:0)
thing.thing.dead_buffer_y                          23 	(obj:0)
thing.thing.dead_buffer_z                          17 	(obj:0)
thing.thing.chamber[2].thingy.r1c_y                   19 	(obj:0)
thing.thing.chamber[2].thingy.r1c_z                   22 	(obj:0)
thing.thing.dead_bead_y                            20 	(obj:0)
thing.thing.dead_bead_z                            20 	(obj:0)
thing.thing.chamber[2].thingy.r2c_y                   17 	(obj:0)
thing.thing.chamber[2].thingy.r2c_z                   19 	(obj:0)
thing.pump0_hole_y                                 18 	(obj:0)
thing.pump0_hole_z                                 24 	(obj:0)
thing.thing.chamber[0].thingy.v12_y                   20 	(obj:0)
thing.thing.chamber[0].thingy.v12_z                   18 	(obj:0)
thing.thing.chamber[1].thingy.p2_y                   19 	(obj:0)
thing.thing.chamber[1].thingy.p2_z                   24 	(obj:0)
thing.horiz_flush_hole_y                           20 	(obj:0)
thing.horiz_flush_hole_z                           16 	(obj:0)
thing.bead_trap_ctrl_hole_y                        17 	(obj:0)
thing.bead_trap_ctrl_hole_z                        21 	(obj:0)
thing.thing.chamber[1].thingy.p0_y                   22 	(obj:0)
thing.thing.chamber[1].thingy.p0_z                   24 	(obj:0)
thing.thing.dead_cell_y                            19 	(obj:0)
thing.thing.dead_cell_z                            20 	(obj:0)
thing.thing.chamber[2].thingy.v11_y                   21 	(obj:0)
thing.thing.chamber[2].thingy.v11_z                   19 	(obj:0)
